p cnf 14 64
-1 2 12 0
-7 13 14 0
3 7 9 0
-7 -9 -12 0
-3 11 12 0
1 -2 13 0
-1 4 -12 0
10 -12 14 0
-2 7 -13 0
2 3 -8 0
-5 6 10 0
-3 -4 12 0
2 -12 -13 0
5 -10 -12 0
-5 7 -8 0
3 -8 13 0
2 7 9 0
1 13 14 0
8 12 13 0
1 -4 -11 0
1 3 -12 0
-4 -8 -13 0
3 4 9 0
-7 9 -13 0
1 3 11 0
2 -7 8 0
8 13 -14 0
1 6 -12 0
-3 -5 -11 0
-4 7 9 0
1 -4 -7 0
-5 8 9 0
7 -8 -14 0
1 -7 -13 0
-1 -4 11 0
7 13 -14 0
4 -10 -14 0
5 -12 13 0
2 5 -14 0
6 -9 12 0
-3 -7 -14 0
-6 -12 -14 0
-2 -7 -12 0
-1 7 -9 0
5 9 -14 0
-2 3 10 0
5 9 -11 0
1 3 10 0
-1 -2 8 0
9 -11 12 0
-1 2 -3 0
2 -6 -10 0
2 -4 14 0
5 7 8 0
6 -8 -12 0
2 -7 11 0
-10 13 -14 0
-9 -10 -12 0
6 -8 -11 0
-1 2 6 0
7 -9 -13 0
-2 3 -14 0
6 11 -12 0
2 -10 13 0
